99 8 84 94 142 51 17 101 129 25 54 157 158 35 130 46 98 91 92 20 24 110 12 44 102 26 75 45 78 180 181 115 144 13 119 40 27 169 145 124 69 33 41 177 68 163 28 134 19 171 80 138 199 155 126 31 183 120 186 38 39 173 161 104 194 81 22 10 151 111 53 190 56 65 55 85 166 176 141 147 198 182 189 168 149 154 34 23 0 167 148 122 86 196 156 21 97 6 76 152 90 162 123 42 82 174 47 48 184 135 16 153 4 2 112 79 73 62 139 37 179 30 5 121 133 164 116 18 192 71 170 128 187 1 106 7 50 118 143 59 43 64 70 172 195 87 109 49 77 191 96 136 185 14 63 58 100 188 175 140 60 9 137 197 29 146 57 131 193 74 15 178 114 132 165 159 113 61 52 88 95 103 36 11 125 108 117 150 72 66 83 160 127 67 89 107 32 105 3 93 

